id: 1289
name: reblock420
group: miplib2010
method: 2

Gurobi 7.0.2 (linux64, Matlab) logging started Mon Mar 26 10:20:33 2018


Gurobi 7.0.2 (linux64) logging started Mon Mar 26 10:20:33 2018

Optimize a model with 62800 rows, 4200 columns and 138670 nonzeros
Coefficient statistics:
  Matrix range     [1e+00, 9e+03]
  Objective range  [5e+02, 1e+07]
  Bounds range     [1e+00, 1e+00]
  RHS range        [1e+05, 2e+05]
Presolve time: 0.07s
Presolved: 4200 rows, 67000 columns, 142870 nonzeros

Ordering time: 0.15s

Barrier statistics:
 Dense cols : 20
 AA' NZ     : 7.589e+04
 Factor NZ  : 1.124e+06 (roughly 40 MBytes of memory)
 Factor Ops : 4.739e+08 (less than 1 second per iteration)
 Threads    : 4

                  Objective                Residual
Iter       Primal          Dual         Primal    Dual     Compl     Time
   0  -6.24843575e+09 -0.00000000e+00  3.84e+03 0.00e+00  1.40e+05     0s
   1  -5.55155565e+09 -6.37115199e+07  3.30e+03 1.82e+02  1.16e+05     0s
   2  -3.37648389e+09 -1.13730074e+08  1.72e+03 1.47e+02  6.80e+04     0s
   3  -1.69148362e+09 -4.13206020e+08  4.66e+02 3.89e+01  2.21e+04     0s
   4  -1.16266674e+09 -6.79488050e+08  1.19e+02 1.28e+01  7.48e+03     0s
   5  -1.05540033e+09 -8.00048660e+08  6.77e+01 5.03e+00  3.64e+03     0s
   6  -9.34012957e+08 -8.55839726e+08  1.89e+01 9.48e-01  1.05e+03     0s
   7  -9.05958949e+08 -8.75492497e+08  7.04e+00 3.22e-01  4.02e+02     0s
   8  -8.94084428e+08 -8.84978880e+08  2.70e+00 1.56e-02  1.10e+02     0s
   9  -8.88732732e+08 -8.86400636e+08  7.74e-01 3.59e-04  2.71e+01     1s
  10  -8.87289507e+08 -8.86502134e+08  2.64e-01 2.22e-05  9.11e+00     1s
  11  -8.86780801e+08 -8.86526030e+08  8.48e-02 3.49e-06  2.95e+00     1s
  12  -8.86540169e+08 -8.86534827e+08  1.42e-03 1.40e-09  6.53e-02     1s
  13  -8.86535901e+08 -8.86535896e+08  3.38e-10 1.18e-09  6.53e-05     1s
  14  -8.86535898e+08 -8.86535898e+08  9.29e-11 1.43e-09  6.53e-08     1s
  15  -8.86535898e+08 -8.86535898e+08  1.24e-11 1.16e-09  1.03e-10     1s

Barrier solved model in 15 iterations and 0.64 seconds
Optimal objective -8.86535898e+08

Crossover log...

       0 PPushes remaining with PInf 0.0000000e+00                 1s

       0 DPushes remaining with DInf 0.0000000e+00                 1s

  Push phase complete: Pinf 0.0000000e+00, Dinf 7.5319875e-09      1s

Iteration    Objective       Primal Inf.    Dual Inf.      Time
   58283   -8.8653590e+08   0.000000e+00   0.000000e+00      1s
   58283   -8.8653590e+08   0.000000e+00   0.000000e+00      1s

Solved in 58283 iterations and 0.89 seconds
Optimal objective -8.865358975e+08
status: OPTIMAL
